language ESSENCE' 1.0
$ Futoshiki instance, by Andras Salamon
$ specify the numbers in the grid
letting values be [[0, 0, 0, 5, 0], [0, 0, 0, 0, 0], [0, 0, 0, 0, 0], [0, 0, 0, 0, 0], [0, 0, 1, 0, 2]]
$ specify last index in array lt; lt[0] is first entry
letting lastdx be 4
$ [i1,j1,i2,j2] requires that values[i1,j1]<values[i2,j2]
letting lt be [[5, 2, 4, 5], [5, 4, 5, 3], [2, 1, 5, 4], [3, 1, 5, 2], [2, 3, 4, 1]]
